
  32    4
  10   10   10   10

   0   0   0   0   0   2 2 12 
   7   1   0   1   1   1 3 
   1   3   0   6   3   1 4 
   4   4   3   0   4   4 14 11 8 5 
   8   4   3   0   5   2 7 6 
   2   5   3   3   0   3 21 18 10 
   2   0   3   3   6   3 26 21 9 
  10   4   0   3   7   2 21 10 
   4   1   2   0   7   1 10 
  10   9   3   0   1   2 16 13 
   9   0   6   4   1   2 26 13 
   8   1   3   3   0   1 13 
   3   4   0   4   5   3 31 17 15 
   8   0   4   8   5   1 15 
  10   1   5   6   0   2 24 19 
   9   6   2   0   2   2 31 20 
   1   4   6   1   0   4 30 29 24 22 
   3   2   5   0   5   4 29 26 24 22 
  10   0   2   5   6   1 20 
   6   6   0   6   3   3 30 29 22 
   4   0   4   3   3   2 31 22 
   5   5   4   4   0   1 23 
   3   0  10   3   6   2 28 25 
   7   3   0   5   4   2 28 25 
   3   5   6   4   0   1 27 
   1   8   2   4   0   1 27 
   9   3   0   2   4   1 32
   3   2   0   7   3   1 32
   8   7   0   3   5   1 32
   2   3   0   3   2   1 32
   8   5   0   5   4   1 32
   0   0   0   0   0   0 
